NAME : local_12
TYPE : ATSP
DIMENSION : 6
EDGE_WEIGHT_TYPE : EXPLICIT
EDGE_WEIGHT_FORMAT : FULL_MATRIX
EDGE_WEIGHT_SECTION
0 10000000 324 10000000 10000000 333 
0 0 10000000 268 10000000 10000000 
0 10000000 0 10000000 10000000 618 
0 268 10000000 0 886 10000000 
0 10000000 10000000 886 0 831 
0 10000000 10000000 10000000 10000000 0 
EOF